c --- [ banner ] -------------------------------------------------------------
c 
c CaDiCaL Radically Simplified CDCL SAT Solver
c Copyright (c) 2016-2021 A. Biere, M. Fleury, N. Froleyks
c 
c Version 1.5.2 ca9bff05c11bde5eae4912f9932871d1527e61d8
c g++ (GCC) 9.3.0 -Wall -Wextra -O3 -DNDEBUG
c Thu Jul 28 23:42:48 EDT 2022 Linux gra-login3 3.10.0-1160.66.1.el7.x86_64 x86_64
c 
c --- [ limit ] --------------------------------------------------------------
c 
c setting conflict limit to 200000 conflicts (due to '200000')
c 
c --- [ parsing input ] ------------------------------------------------------
c 
c reading DIMACS file from '23.cubes173.adj'
c opening file to read '23.cubes173.adj'
c found 'p cnf 5320 914894' header
c parsed 914894 clauses in 8.31 seconds process time
c closing file '23.cubes173.adj'
c after reading 637829999 bytes 608.3 MB
c 
c --- [ options ] ------------------------------------------------------------
c 
c all options are set to their default value
c 
c --- [ solving ] ------------------------------------------------------------
c 
c time measured in process time since initialization
c 
c  seconds   reductions  redundant  irredundant
c          MB    restarts       trail      variables
c           level   conflicts       glue        remaining
c 
c *  8.31 627  0 0   0    0    0  0% 0 914847 2096 39%
c {  8.61 646  0 0   0    0    0  0% 0 914847 2096 39%
c i  9.18 678 587 0   0   27   19 29% 7 914847 2077 39%
c i  9.33 683 568 0   1   30   20 31% 7 914847 2056 39%
c i  9.59 687 434 0   2   38   24 28% 7 914847 2055 39%
c i  9.68 688 164 0   2   92   46 20% 5 914847 2007 38%
c i  9.68 688 157 0   2   96   47 19% 4 914847 1802 34%
c i  9.68 688 155 0   2   97   47 19% 4 914847 1782 33%
c }  9.68 688 153 0   2   99   47 19% 4 914847 1771 33%
c 0  9.68 688 153 0   2   99   47 19% 4 914847 1771 33%
c 
c --- [ writing output ] -----------------------------------------------------
c 
c writing simplified CNF to DIMACS file 'simp/23.cubes173.adj.simp1'
c *  9.68 688 153 0   2   99   47 19% 4 914847 1771 33%
c opening file to write 'simp/23.cubes173.adj.simp1'
c writing 'p cnf 5320 1' header
c closing file 'simp/23.cubes173.adj.simp1'
c after writing 15 bytes 0.0 MB
c wrote 1 clauses in 0.00 seconds process time
c 
c --- [ writing extension ] --------------------------------------------------
c 
c writing extension stack to 'simp/23.cubes173.adj.ext1'
c opening file to write 'simp/23.cubes173.adj.ext1'
c closing file 'simp/23.cubes173.adj.ext1'
c after writing 0 bytes 0.0 MB
c wrote 0 witnesses in 0.00 seconds process time
c 
c --- [ result ] -------------------------------------------------------------
c 
s UNSATISFIABLE
c 
c --- [ run-time profiling ] -------------------------------------------------
c 
c process time taken by individual solving procedures
c (percentage relative to process time for solving)
c 
c         8.31  606.21% parse
c         1.37   99.98% search
c         1.08   78.54% unstable
c         0.29   21.43% lucky
c         0.00    0.00% simplify
c   =================================
c         1.37   14.16% solve
c 
c last line shows process time for solving
c (percentage relative to total process time)
c 
c --- [ statistics ] ---------------------------------------------------------
c 
c chronological:                27        27.27 %  of conflicts
c conflicts:                    99        72.20    per second
c decisions:                  3789      2763.34    per second
c fixed:                       712        13.38 %  of all variables
c learned:                      92        92.93 %  per conflict
c learned_lits:               1096       100.00 %  learned literals
c minimized:                     0         0.00 %  learned literals
c shrunken:                    456        41.61 %  learned literals
c minishrunken:                 52         4.74 %  learned literals
c propagations:              13758         0.01 M  per second
c restarts:                      2        49.50    interval
c subsumed:                     38         0.00 %  of all clauses
c 
c seconds are measured in process time for solving
c 
c --- [ resources ] ----------------------------------------------------------
c 
c total process time since initialization:         9.69    seconds
c total real time since initialization:           10.85    seconds
c maximum resident set size of process:          688.09    MB
c 
c --- [ shutting down ] ------------------------------------------------------
c 
c exit 20
WARNING! DIMACS header mismatch: wrong number of variables.
============================[ Problem Statistics ]=============================
|                                                                             |
|  Number of variables:             0                                         |
|  Number of clauses:               0                                         |
|  Parse time:                   0.00 s                                       |
|  Simplification time:          0.00 s                                       |
|                                                                             |
===============================================================================
Solved by simplification
database reductions   : 0
restarts              : 0
conflicts             : 0              (-nan /sec)
decisions             : 0              (-nan % random) (-nan /sec)
propagations          : 0              (-nan /sec)
conflict literals     : 0              (-nan % deleted)
actual reward         : -nan
Memory used           : 5.00 MB
CPU time              : 0 s

UNSATISFIABLE
